p cnf 318 2591
146 228 235 0
78 80 125 183 201 0
111 113 177 0
192 199 252 0
58 60 132 0
52 260 0
124 137 163 0
47 117 119 121 0
108 143 148 151 153 0
172 276 0
42 122 171 174 0
37 144 194 196 296 0
139 186 189 203 0
34 128 158 205 208 0
156 165 211 0
138 161 180 184 0
100 104 106 0
98 101 140 0
94 95 96 159 160 0
88 89 90 92 0
83 84 87 0
73 74 75 77 79 0
69 72 175 0
67 68 109 188 197 0
63 166 200 0
54 57 59 130 0
49 51 53 157 0
48 135 0
44 45 105 116 0
43 152 0
38 39 40 41 169 0
35 36 64 193 0
33 61 185 204 0
55 129 0
50 155 0
99 102 103 107 212 0
97 141 213 214 215 0
91 93 147 216 0
217 218 221 222 223 0
85 224 225 0
229 230 231 236 238 0
82 127 168 219 239 240 0
71 76 241 243 245 0
115 179 233 246 0
182 202 247 0
134 248 250 298 0
164 191 198 251 253 0
131 254 255 0
256 257 258 261 263 0
264 265 267 270 272 0
173 273 274 275 277 0
278 280 283 285 0
286 287 288 290 292 0
66 187 190 293 0
62 207 210 294 300 0
56 195 295 297 0
-126 -228 0
-86 -228 0
-125 -228 0
-228 -299 0
-86 -126 0
-125 -126 0
-126 -299 0
-86 -125 0
-86 -299 0
-125 -299 0
-65 -301 0
-65 -144 0
-34 -65 0
-65 -211 0
-144 -301 0
-34 -301 0
-211 -301 0
-34 -144 0
-144 -211 0
-34 -211 0
-96 -101 0
-92 -101 0
-101 -226 0
-101 -232 0
-72 -101 0
-101 -109 0
-92 -96 0
-96 -226 0
-96 -232 0
-72 -96 0
-96 -109 0
-92 -226 0
-92 -232 0
-72 -92 0
-92 -109 0
-226 -232 0
-72 -226 0
-109 -226 0
-72 -232 0
-109 -232 0
-72 -109 0
-130 -166 0
-53 -166 0
-116 -166 0
-166 -259 0
-152 -166 0
-166 -268 0
-53 -130 0
-116 -130 0
-130 -259 0
-130 -152 0
-130 -268 0
-53 -116 0
-53 -259 0
-53 -152 0
-53 -268 0
-116 -259 0
-116 -152 0
-116 -268 0
-152 -259 0
-259 -268 0
-152 -268 0
-169 -302 0
-281 -302 0
-193 -302 0
-185 -302 0
-155 -302 0
-181 -302 0
-169 -281 0
-169 -193 0
-169 -185 0
-155 -169 0
-169 -181 0
-193 -281 0
-185 -281 0
-155 -281 0
-181 -281 0
-185 -193 0
-155 -193 0
-181 -193 0
-155 -185 0
-181 -185 0
-155 -181 0
-103 -303 0
-213 -303 0
-239 -303 0
-76 -303 0
-103 -213 0
-103 -239 0
-76 -103 0
-213 -239 0
-76 -213 0
-76 -239 0
-264 -304 0
-264 -273 0
-62 -264 0
-56 -264 0
-273 -304 0
-62 -304 0
-56 -304 0
-62 -273 0
-56 -273 0
-56 -62 0
-65 -228 0
-101 -228 0
-166 -228 0
-228 -302 0
-228 -303 0
-228 -264 0
-65 -101 0
-65 -166 0
-65 -302 0
-65 -303 0
-65 -264 0
-101 -166 0
-101 -302 0
-101 -303 0
-101 -264 0
-166 -302 0
-166 -303 0
-166 -264 0
-302 -303 0
-264 -302 0
-264 -303 0
-126 -301 0
-96 -126 0
-126 -130 0
-126 -169 0
-103 -126 0
-126 -304 0
-96 -301 0
-130 -301 0
-169 -301 0
-103 -301 0
-301 -304 0
-96 -130 0
-96 -169 0
-96 -103 0
-96 -304 0
-130 -169 0
-103 -130 0
-130 -304 0
-103 -169 0
-169 -304 0
-103 -304 0
-86 -144 0
-86 -92 0
-53 -86 0
-86 -281 0
-86 -213 0
-86 -273 0
-92 -144 0
-53 -144 0
-144 -281 0
-144 -213 0
-144 -273 0
-53 -92 0
-92 -281 0
-92 -213 0
-92 -273 0
-53 -281 0
-53 -213 0
-53 -273 0
-213 -281 0
-273 -281 0
-213 -273 0
-34 -125 0
-125 -226 0
-116 -125 0
-125 -193 0
-34 -226 0
-34 -116 0
-34 -193 0
-116 -226 0
-193 -226 0
-116 -193 0
-211 -299 0
-232 -299 0
-259 -299 0
-185 -299 0
-211 -232 0
-211 -259 0
-185 -211 0
-232 -259 0
-185 -232 0
-185 -259 0
-72 -152 0
-72 -155 0
-72 -239 0
-62 -72 0
-152 -155 0
-152 -239 0
-62 -152 0
-155 -239 0
-62 -155 0
-62 -239 0
-109 -268 0
-109 -181 0
-76 -109 0
-56 -109 0
-181 -268 0
-76 -268 0
-56 -268 0
-76 -181 0
-56 -181 0
-56 -76 0
-184 -305 0
-51 -200 0
-141 -306 0
-85 -306 0
-229 -306 0
-127 -306 0
-85 -141 0
-141 -229 0
-127 -141 0
-85 -229 0
-85 -127 0
-127 -229 0
-246 -298 0
-246 -254 0
-246 -256 0
-246 -307 0
-254 -298 0
-256 -298 0
-298 -307 0
-254 -256 0
-254 -307 0
-256 -307 0
-265 -274 0
-145 -265 0
-66 -265 0
-265 -300 0
-145 -274 0
-66 -274 0
-274 -300 0
-66 -145 0
-145 -300 0
-66 -300 0
-200 -306 0
-200 -246 0
-200 -265 0
-246 -306 0
-265 -306 0
-246 -265 0
-51 -141 0
-51 -298 0
-51 -274 0
-141 -298 0
-141 -274 0
-274 -298 0
-85 -254 0
-85 -145 0
-145 -254 0
-184 -229 0
-184 -256 0
-66 -184 0
-229 -256 0
-66 -229 0
-66 -256 0
-127 -305 0
-305 -307 0
-300 -305 0
-127 -307 0
-127 -300 0
-300 -307 0
-308 -309 0
-122 -308 0
-122 -309 0
-90 -159 0
-159 -310 0
-159 -237 0
-79 -159 0
-69 -159 0
-68 -159 0
-90 -310 0
-90 -237 0
-79 -90 0
-69 -90 0
-68 -90 0
-237 -310 0
-79 -310 0
-69 -310 0
-68 -310 0
-79 -237 0
-69 -237 0
-68 -237 0
-69 -79 0
-68 -79 0
-68 -69 0
-59 -157 0
-45 -59 0
-59 -262 0
-59 -149 0
-43 -59 0
-59 -311 0
-45 -157 0
-157 -262 0
-149 -157 0
-43 -157 0
-157 -311 0
-45 -262 0
-45 -149 0
-43 -45 0
-45 -311 0
-149 -262 0
-43 -262 0
-262 -311 0
-43 -149 0
-149 -311 0
-43 -311 0
-41 -312 0
-36 -41 0
-41 -204 0
-41 -129 0
-41 -50 0
-41 -313 0
-36 -312 0
-204 -312 0
-129 -312 0
-50 -312 0
-312 -313 0
-36 -204 0
-36 -129 0
-36 -50 0
-36 -313 0
-129 -204 0
-50 -204 0
-204 -313 0
-50 -129 0
-129 -313 0
-50 -313 0
-99 -214 0
-99 -217 0
-99 -224 0
-99 -230 0
-99 -240 0
-99 -241 0
-214 -217 0
-214 -224 0
-214 -230 0
-214 -240 0
-214 -241 0
-217 -224 0
-217 -230 0
-217 -240 0
-217 -241 0
-224 -230 0
-224 -240 0
-224 -241 0
-230 -240 0
-230 -241 0
-240 -241 0
-247 -248 0
-247 -251 0
-247 -255 0
-247 -257 0
-247 -314 0
-247 -315 0
-248 -251 0
-248 -255 0
-248 -257 0
-248 -314 0
-248 -315 0
-251 -255 0
-251 -257 0
-251 -314 0
-251 -315 0
-255 -257 0
-255 -314 0
-255 -315 0
-257 -314 0
-257 -315 0
-314 -315 0
-275 -316 0
-286 -316 0
-316 -317 0
-293 -316 0
-294 -316 0
-295 -316 0
-275 -286 0
-275 -317 0
-275 -293 0
-275 -294 0
-275 -295 0
-286 -317 0
-286 -293 0
-286 -294 0
-286 -295 0
-293 -317 0
-294 -317 0
-295 -317 0
-293 -294 0
-293 -295 0
-294 -295 0
-59 -159 0
-41 -159 0
-99 -159 0
-159 -247 0
-159 -316 0
-41 -59 0
-59 -99 0
-59 -247 0
-59 -316 0
-41 -99 0
-41 -247 0
-41 -316 0
-99 -247 0
-99 -316 0
-247 -316 0
-90 -157 0
-90 -312 0
-90 -214 0
-90 -248 0
-90 -275 0
-157 -312 0
-157 -214 0
-157 -248 0
-157 -275 0
-214 -312 0
-248 -312 0
-275 -312 0
-214 -248 0
-214 -275 0
-248 -275 0
-45 -310 0
-36 -310 0
-217 -310 0
-251 -310 0
-286 -310 0
-36 -45 0
-45 -217 0
-45 -251 0
-45 -286 0
-36 -217 0
-36 -251 0
-36 -286 0
-217 -251 0
-217 -286 0
-251 -286 0
-237 -262 0
-204 -237 0
-224 -237 0
-237 -255 0
-237 -317 0
-204 -262 0
-224 -262 0
-255 -262 0
-262 -317 0
-204 -224 0
-204 -255 0
-204 -317 0
-224 -255 0
-224 -317 0
-255 -317 0
-79 -308 0
-149 -308 0
-129 -308 0
-230 -308 0
-257 -308 0
-293 -308 0
-79 -149 0
-79 -129 0
-79 -230 0
-79 -257 0
-79 -293 0
-129 -149 0
-149 -230 0
-149 -257 0
-149 -293 0
-129 -230 0
-129 -257 0
-129 -293 0
-230 -257 0
-230 -293 0
-257 -293 0
-69 -309 0
-43 -309 0
-50 -309 0
-240 -309 0
-309 -314 0
-294 -309 0
-43 -69 0
-50 -69 0
-69 -240 0
-69 -314 0
-69 -294 0
-43 -50 0
-43 -240 0
-43 -314 0
-43 -294 0
-50 -240 0
-50 -314 0
-50 -294 0
-240 -314 0
-240 -294 0
-294 -314 0
-68 -122 0
-122 -311 0
-122 -313 0
-122 -241 0
-122 -315 0
-122 -295 0
-68 -311 0
-68 -313 0
-68 -241 0
-68 -315 0
-68 -295 0
-311 -313 0
-241 -311 0
-311 -315 0
-295 -311 0
-241 -313 0
-313 -315 0
-295 -313 0
-241 -315 0
-241 -295 0
-295 -315 0
-95 -98 0
-77 -98 0
-77 -95 0
-57 -63 0
-63 -154 0
-57 -154 0
-107 -318 0
-63 -98 0
-98 -318 0
-63 -318 0
-57 -95 0
-95 -107 0
-57 -107 0
-77 -154 0
-220 -227 0
-220 -234 0
-183 -220 0
-133 -220 0
-111 -220 0
-132 -220 0
-227 -234 0
-183 -227 0
-133 -227 0
-111 -227 0
-132 -227 0
-183 -234 0
-133 -234 0
-111 -234 0
-132 -234 0
-133 -183 0
-111 -183 0
-132 -183 0
-111 -133 0
-132 -133 0
-111 -132 0
-117 -163 0
-163 -266 0
-143 -163 0
-163 -172 0
-163 -279 0
-163 -171 0
-117 -266 0
-117 -143 0
-117 -172 0
-117 -279 0
-117 -171 0
-143 -266 0
-172 -266 0
-266 -279 0
-171 -266 0
-143 -172 0
-143 -279 0
-143 -171 0
-172 -279 0
-171 -172 0
-171 -279 0
-194 -206 0
-186 -206 0
-205 -206 0
-156 -206 0
-180 -206 0
-104 -206 0
-186 -194 0
-194 -205 0
-156 -194 0
-180 -194 0
-104 -194 0
-186 -205 0
-156 -186 0
-180 -186 0
-104 -186 0
-156 -205 0
-180 -205 0
-104 -205 0
-156 -180 0
-104 -156 0
-104 -180 0
-89 -94 0
-87 -94 0
-32 -94 0
-31 -94 0
-75 -94 0
-67 -94 0
-87 -89 0
-32 -89 0
-31 -89 0
-75 -89 0
-67 -89 0
-32 -87 0
-31 -87 0
-75 -87 0
-67 -87 0
-31 -32 0
-32 -75 0
-32 -67 0
-31 -75 0
-31 -67 0
-67 -75 0
-49 -54 0
-48 -54 0
-44 -54 0
-30 -54 0
-29 -54 0
-28 -54 0
-48 -49 0
-44 -49 0
-30 -49 0
-29 -49 0
-28 -49 0
-44 -48 0
-30 -48 0
-29 -48 0
-28 -48 0
-30 -44 0
-29 -44 0
-28 -44 0
-29 -30 0
-28 -30 0
-28 -29 0
-27 -40 0
-26 -40 0
-35 -40 0
-40 -61 0
-40 -55 0
-25 -40 0
-26 -27 0
-27 -35 0
-27 -61 0
-27 -55 0
-25 -27 0
-26 -35 0
-26 -61 0
-26 -55 0
-25 -26 0
-35 -61 0
-35 -55 0
-25 -35 0
-55 -61 0
-25 -61 0
-25 -55 0
-278 -287 0
-24 -278 0
-24 -287 0
-163 -220 0
-206 -220 0
-94 -220 0
-54 -220 0
-40 -220 0
-163 -206 0
-94 -163 0
-54 -163 0
-40 -163 0
-94 -206 0
-54 -206 0
-40 -206 0
-54 -94 0
-40 -94 0
-40 -54 0
-117 -227 0
-194 -227 0
-89 -227 0
-49 -227 0
-27 -227 0
-117 -194 0
-89 -117 0
-49 -117 0
-27 -117 0
-89 -194 0
-49 -194 0
-27 -194 0
-49 -89 0
-27 -89 0
-27 -49 0
-234 -266 0
-186 -234 0
-87 -234 0
-48 -234 0
-26 -234 0
-234 -278 0
-186 -266 0
-87 -266 0
-48 -266 0
-26 -266 0
-266 -278 0
-87 -186 0
-48 -186 0
-26 -186 0
-186 -278 0
-48 -87 0
-26 -87 0
-87 -278 0
-26 -48 0
-48 -278 0
-26 -278 0
-143 -183 0
-183 -205 0
-32 -183 0
-44 -183 0
-35 -183 0
-183 -287 0
-143 -205 0
-32 -143 0
-44 -143 0
-35 -143 0
-143 -287 0
-32 -205 0
-44 -205 0
-35 -205 0
-205 -287 0
-32 -44 0
-32 -35 0
-32 -287 0
-35 -44 0
-44 -287 0
-35 -287 0
-133 -172 0
-133 -156 0
-31 -133 0
-30 -133 0
-61 -133 0
-24 -133 0
-156 -172 0
-31 -172 0
-30 -172 0
-61 -172 0
-24 -172 0
-31 -156 0
-30 -156 0
-61 -156 0
-24 -156 0
-30 -31 0
-31 -61 0
-24 -31 0
-30 -61 0
-24 -30 0
-24 -61 0
-111 -279 0
-111 -180 0
-75 -111 0
-29 -111 0
-55 -111 0
-180 -279 0
-75 -279 0
-29 -279 0
-55 -279 0
-75 -180 0
-29 -180 0
-55 -180 0
-29 -75 0
-55 -75 0
-29 -55 0
-132 -171 0
-104 -132 0
-67 -132 0
-28 -132 0
-25 -132 0
-104 -171 0
-67 -171 0
-28 -171 0
-25 -171 0
-67 -104 0
-28 -104 0
-25 -104 0
-28 -67 0
-25 -67 0
-25 -28 0
-146 -167 0
-146 -242 0
-146 -178 0
-146 -201 0
-146 -249 0
-146 -177 0
-146 -199 0
-167 -242 0
-167 -178 0
-167 -201 0
-167 -249 0
-167 -177 0
-167 -199 0
-178 -242 0
-201 -242 0
-242 -249 0
-177 -242 0
-199 -242 0
-178 -201 0
-178 -249 0
-177 -178 0
-178 -199 0
-201 -249 0
-177 -201 0
-199 -201 0
-177 -249 0
-199 -249 0
-177 -199 0
-52 -124 0
-52 -121 0
-52 -269 0
-52 -151 0
-52 -276 0
-52 -282 0
-52 -289 0
-121 -124 0
-124 -269 0
-124 -151 0
-124 -276 0
-124 -282 0
-124 -289 0
-121 -269 0
-121 -151 0
-121 -276 0
-121 -282 0
-121 -289 0
-151 -269 0
-269 -276 0
-269 -282 0
-269 -289 0
-151 -276 0
-151 -282 0
-151 -289 0
-276 -282 0
-276 -289 0
-282 -289 0
-23 -209 0
-23 -196 0
-23 -139 0
-23 -208 0
-23 -165 0
-23 -161 0
-22 -23 0
-196 -209 0
-139 -209 0
-208 -209 0
-165 -209 0
-161 -209 0
-22 -209 0
-139 -196 0
-196 -208 0
-165 -196 0
-161 -196 0
-22 -196 0
-139 -208 0
-139 -165 0
-139 -161 0
-22 -139 0
-165 -208 0
-161 -208 0
-22 -208 0
-161 -165 0
-22 -165 0
-22 -161 0
-140 -160 0
-88 -140 0
-84 -140 0
-21 -140 0
-20 -140 0
-88 -160 0
-84 -160 0
-21 -160 0
-20 -160 0
-84 -88 0
-21 -88 0
-20 -88 0
-21 -84 0
-20 -84 0
-20 -21 0
-19 -39 0
-18 -19 0
-17 -19 0
-19 -64 0
-19 -33 0
-18 -39 0
-17 -39 0
-39 -64 0
-33 -39 0
-17 -18 0
-18 -64 0
-18 -33 0
-17 -64 0
-17 -33 0
-33 -64 0
-16 -102 0
-16 -97 0
-16 -93 0
-16 -218 0
-16 -225 0
-16 -231 0
-16 -219 0
-97 -102 0
-93 -102 0
-102 -218 0
-102 -225 0
-102 -231 0
-102 -219 0
-93 -97 0
-97 -218 0
-97 -225 0
-97 -231 0
-97 -219 0
-93 -218 0
-93 -225 0
-93 -231 0
-93 -219 0
-218 -225 0
-218 -231 0
-218 -219 0
-225 -231 0
-219 -225 0
-219 -231 0
-182 -233 0
-134 -233 0
-110 -233 0
-164 -233 0
-131 -233 0
-233 -258 0
-162 -233 0
-134 -182 0
-110 -182 0
-164 -182 0
-131 -182 0
-182 -258 0
-162 -182 0
-110 -134 0
-134 -164 0
-131 -134 0
-134 -258 0
-134 -162 0
-110 -164 0
-110 -131 0
-110 -258 0
-110 -162 0
-131 -164 0
-164 -258 0
-162 -164 0
-131 -258 0
-131 -162 0
-162 -258 0
-142 -267 0
-173 -267 0
-267 -280 0
-267 -288 0
-170 -267 0
-187 -267 0
-207 -267 0
-142 -173 0
-142 -280 0
-142 -288 0
-142 -170 0
-142 -187 0
-142 -207 0
-173 -280 0
-173 -288 0
-170 -173 0
-173 -187 0
-173 -207 0
-280 -288 0
-170 -280 0
-187 -280 0
-207 -280 0
-170 -288 0
-187 -288 0
-207 -288 0
-170 -187 0
-170 -207 0
-187 -207 0
-52 -146 0
-23 -146 0
-140 -146 0
-19 -146 0
-16 -146 0
-146 -233 0
-146 -267 0
-23 -52 0
-52 -140 0
-19 -52 0
-16 -52 0
-52 -233 0
-52 -267 0
-23 -140 0
-19 -23 0
-16 -23 0
-23 -233 0
-23 -267 0
-19 -140 0
-16 -140 0
-140 -233 0
-140 -267 0
-16 -19 0
-19 -233 0
-19 -267 0
-16 -233 0
-16 -267 0
-233 -267 0
-124 -167 0
-167 -209 0
-160 -167 0
-39 -167 0
-102 -167 0
-167 -182 0
-142 -167 0
-124 -209 0
-124 -160 0
-39 -124 0
-102 -124 0
-124 -182 0
-124 -142 0
-160 -209 0
-39 -209 0
-102 -209 0
-182 -209 0
-142 -209 0
-39 -160 0
-102 -160 0
-160 -182 0
-142 -160 0
-39 -102 0
-39 -182 0
-39 -142 0
-102 -182 0
-102 -142 0
-142 -182 0
-121 -242 0
-196 -242 0
-88 -242 0
-18 -242 0
-97 -242 0
-134 -242 0
-173 -242 0
-121 -196 0
-88 -121 0
-18 -121 0
-97 -121 0
-121 -134 0
-121 -173 0
-88 -196 0
-18 -196 0
-97 -196 0
-134 -196 0
-173 -196 0
-18 -88 0
-88 -97 0
-88 -134 0
-88 -173 0
-18 -97 0
-18 -134 0
-18 -173 0
-97 -134 0
-97 -173 0
-134 -173 0
-178 -269 0
-139 -178 0
-84 -178 0
-17 -178 0
-93 -178 0
-110 -178 0
-178 -280 0
-139 -269 0
-84 -269 0
-17 -269 0
-93 -269 0
-110 -269 0
-269 -280 0
-84 -139 0
-17 -139 0
-93 -139 0
-110 -139 0
-139 -280 0
-17 -84 0
-84 -93 0
-84 -110 0
-84 -280 0
-17 -93 0
-17 -110 0
-17 -280 0
-93 -110 0
-93 -280 0
-110 -280 0
-151 -201 0
-201 -208 0
-21 -201 0
-64 -201 0
-201 -218 0
-164 -201 0
-201 -288 0
-151 -208 0
-21 -151 0
-64 -151 0
-151 -218 0
-151 -164 0
-151 -288 0
-21 -208 0
-64 -208 0
-208 -218 0
-164 -208 0
-208 -288 0
-21 -64 0
-21 -218 0
-21 -164 0
-21 -288 0
-64 -218 0
-64 -164 0
-64 -288 0
-164 -218 0
-218 -288 0
-164 -288 0
-249 -276 0
-165 -249 0
-20 -249 0
-33 -249 0
-225 -249 0
-131 -249 0
-170 -249 0
-165 -276 0
-20 -276 0
-33 -276 0
-225 -276 0
-131 -276 0
-170 -276 0
-20 -165 0
-33 -165 0
-165 -225 0
-131 -165 0
-165 -170 0
-20 -33 0
-20 -225 0
-20 -131 0
-20 -170 0
-33 -225 0
-33 -131 0
-33 -170 0
-131 -225 0
-170 -225 0
-131 -170 0
-177 -282 0
-161 -177 0
-177 -231 0
-177 -258 0
-177 -187 0
-161 -282 0
-231 -282 0
-258 -282 0
-187 -282 0
-161 -231 0
-161 -258 0
-161 -187 0
-231 -258 0
-187 -231 0
-187 -258 0
-199 -289 0
-22 -199 0
-199 -219 0
-162 -199 0
-199 -207 0
-22 -289 0
-219 -289 0
-162 -289 0
-207 -289 0
-22 -219 0
-22 -162 0
-22 -207 0
-162 -219 0
-207 -219 0
-162 -207 0
-81 -235 0
-70 -235 0
-15 -235 0
-80 -235 0
-192 -235 0
-60 -235 0
-70 -81 0
-15 -81 0
-80 -81 0
-81 -192 0
-60 -81 0
-15 -70 0
-70 -80 0
-70 -192 0
-60 -70 0
-15 -80 0
-15 -192 0
-15 -60 0
-80 -192 0
-60 -80 0
-60 -192 0
-137 -260 0
-47 -260 0
-14 -260 0
-148 -260 0
-13 -260 0
-42 -260 0
-47 -137 0
-14 -137 0
-137 -148 0
-13 -137 0
-42 -137 0
-14 -47 0
-47 -148 0
-13 -47 0
-42 -47 0
-14 -148 0
-13 -14 0
-14 -42 0
-13 -148 0
-42 -148 0
-13 -42 0
-11 -12 0
-12 -37 0
-12 -203 0
-12 -128 0
-10 -12 0
-12 -100 0
-11 -37 0
-11 -203 0
-11 -128 0
-10 -11 0
-11 -100 0
-37 -203 0
-37 -128 0
-10 -37 0
-37 -100 0
-128 -203 0
-10 -203 0
-100 -203 0
-10 -128 0
-100 -128 0
-10 -100 0
-9 -38 0
-8 -9 0
-8 -38 0
-7 -212 0
-7 -215 0
-7 -147 0
-7 -221 0
-7 -168 0
-7 -243 0
-212 -215 0
-147 -212 0
-212 -221 0
-168 -212 0
-212 -243 0
-147 -215 0
-215 -221 0
-168 -215 0
-215 -243 0
-147 -221 0
-147 -168 0
-147 -243 0
-168 -221 0
-221 -243 0
-168 -243 0
-179 -202 0
-179 -250 0
-176 -179 0
-179 -198 0
-123 -179 0
-120 -179 0
-202 -250 0
-176 -202 0
-198 -202 0
-123 -202 0
-120 -202 0
-176 -250 0
-198 -250 0
-123 -250 0
-120 -250 0
-176 -198 0
-123 -176 0
-120 -176 0
-123 -198 0
-120 -198 0
-120 -123 0
-150 -270 0
-270 -277 0
-270 -283 0
-270 -290 0
-210 -270 0
-195 -270 0
-150 -277 0
-150 -283 0
-150 -290 0
-150 -210 0
-150 -195 0
-277 -283 0
-277 -290 0
-210 -277 0
-195 -277 0
-283 -290 0
-210 -283 0
-195 -283 0
-210 -290 0
-195 -290 0
-195 -210 0
-235 -260 0
-12 -235 0
-9 -235 0
-7 -235 0
-179 -235 0
-235 -270 0
-12 -260 0
-9 -260 0
-7 -260 0
-179 -260 0
-260 -270 0
-9 -12 0
-7 -12 0
-12 -179 0
-12 -270 0
-7 -9 0
-9 -179 0
-9 -270 0
-7 -179 0
-7 -270 0
-179 -270 0
-81 -137 0
-11 -81 0
-38 -81 0
-81 -212 0
-81 -202 0
-81 -150 0
-11 -137 0
-38 -137 0
-137 -212 0
-137 -202 0
-137 -150 0
-11 -38 0
-11 -212 0
-11 -202 0
-11 -150 0
-38 -212 0
-38 -202 0
-38 -150 0
-202 -212 0
-150 -212 0
-150 -202 0
-47 -70 0
-37 -70 0
-8 -70 0
-70 -215 0
-70 -250 0
-70 -277 0
-37 -47 0
-8 -47 0
-47 -215 0
-47 -250 0
-47 -277 0
-8 -37 0
-37 -215 0
-37 -250 0
-37 -277 0
-8 -215 0
-8 -250 0
-8 -277 0
-215 -250 0
-215 -277 0
-250 -277 0
-14 -15 0
-15 -203 0
-15 -147 0
-15 -176 0
-15 -283 0
-14 -203 0
-14 -147 0
-14 -176 0
-14 -283 0
-147 -203 0
-176 -203 0
-203 -283 0
-147 -176 0
-147 -283 0
-176 -283 0
-80 -148 0
-80 -128 0
-80 -221 0
-80 -198 0
-80 -290 0
-128 -148 0
-148 -221 0
-148 -198 0
-148 -290 0
-128 -221 0
-128 -198 0
-128 -290 0
-198 -221 0
-221 -290 0
-198 -290 0
-13 -192 0
-10 -192 0
-168 -192 0
-123 -192 0
-192 -210 0
-10 -13 0
-13 -168 0
-13 -123 0
-13 -210 0
-10 -168 0
-10 -123 0
-10 -210 0
-123 -168 0
-168 -210 0
-123 -210 0
-42 -60 0
-60 -100 0
-60 -243 0
-60 -120 0
-60 -195 0
-42 -100 0
-42 -243 0
-42 -120 0
-42 -195 0
-100 -243 0
-100 -120 0
-100 -195 0
-120 -243 0
-195 -243 0
-120 -195 0
-114 -244 0
-78 -244 0
-113 -244 0
-244 -252 0
-58 -244 0
-78 -114 0
-113 -114 0
-114 -252 0
-58 -114 0
-78 -113 0
-78 -252 0
-58 -78 0
-113 -252 0
-58 -113 0
-58 -252 0
-119 -271 0
-119 -153 0
-119 -284 0
-119 -291 0
-119 -174 0
-153 -271 0
-271 -284 0
-271 -291 0
-174 -271 0
-153 -284 0
-153 -291 0
-153 -174 0
-284 -291 0
-174 -284 0
-174 -291 0
-189 -296 0
-158 -296 0
-138 -296 0
-6 -296 0
-106 -296 0
-158 -189 0
-138 -189 0
-6 -189 0
-106 -189 0
-138 -158 0
-6 -158 0
-106 -158 0
-6 -138 0
-106 -138 0
-6 -106 0
-74 -175 0
-74 -197 0
-175 -197 0
-91 -222 0
-91 -236 0
-82 -91 0
-71 -91 0
-222 -236 0
-82 -222 0
-71 -222 0
-82 -236 0
-71 -236 0
-71 -82 0
-5 -191 0
-5 -261 0
-5 -136 0
-5 -46 0
-191 -261 0
-136 -191 0
-46 -191 0
-136 -261 0
-46 -261 0
-46 -136 0
-119 -244 0
-244 -296 0
-119 -296 0
-114 -271 0
-114 -189 0
-91 -114 0
-5 -114 0
-189 -271 0
-91 -271 0
-5 -271 0
-91 -189 0
-5 -189 0
-5 -91 0
-78 -153 0
-78 -158 0
-78 -222 0
-78 -191 0
-153 -158 0
-153 -222 0
-153 -191 0
-158 -222 0
-158 -191 0
-191 -222 0
-113 -284 0
-113 -138 0
-74 -113 0
-113 -236 0
-113 -261 0
-138 -284 0
-74 -284 0
-236 -284 0
-261 -284 0
-74 -138 0
-138 -236 0
-138 -261 0
-74 -236 0
-74 -261 0
-236 -261 0
-252 -291 0
-6 -252 0
-175 -252 0
-82 -252 0
-136 -252 0
-6 -291 0
-175 -291 0
-82 -291 0
-136 -291 0
-6 -175 0
-6 -82 0
-6 -136 0
-82 -175 0
-136 -175 0
-82 -136 0
-58 -174 0
-58 -106 0
-58 -197 0
-58 -71 0
-46 -58 0
-106 -174 0
-174 -197 0
-71 -174 0
-46 -174 0
-106 -197 0
-71 -106 0
-46 -106 0
-71 -197 0
-46 -197 0
-46 -71 0
-4 -83 0
-73 -83 0
-83 -188 0
-4 -73 0
-4 -188 0
-73 -188 0
-105 -135 0
-3 -135 0
-2 -135 0
-3 -105 0
-2 -105 0
-2 -3 0
-1 -216 0
-1 -223 0
-1 -238 0
-1 -245 0
-216 -223 0
-216 -238 0
-216 -245 0
-223 -238 0
-223 -245 0
-238 -245 0
-112 -115 0
-115 -253 0
-115 -263 0
-115 -118 0
-112 -253 0
-112 -263 0
-112 -118 0
-253 -263 0
-118 -253 0
-118 -263 0
-272 -285 0
-272 -292 0
-190 -272 0
-272 -297 0
-285 -292 0
-190 -285 0
-285 -297 0
-190 -292 0
-292 -297 0
-190 -297 0
-1 -115 0
-1 -272 0
-115 -272 0
-83 -135 0
-83 -216 0
-83 -112 0
-83 -285 0
-135 -216 0
-112 -135 0
-135 -285 0
-112 -216 0
-216 -285 0
-112 -285 0
-4 -105 0
-4 -223 0
-4 -253 0
-4 -292 0
-105 -223 0
-105 -253 0
-105 -292 0
-223 -253 0
-223 -292 0
-253 -292 0
-3 -73 0
-73 -238 0
-73 -263 0
-73 -190 0
-3 -238 0
-3 -263 0
-3 -190 0
-238 -263 0
-190 -238 0
-190 -263 0
-2 -188 0
-188 -245 0
-118 -188 0
-188 -297 0
-2 -245 0
-2 -118 0
-2 -297 0
-118 -245 0
-245 -297 0
-118 -297 0
-126 -228 0
-86 -228 0
-65 -228 0
-228 -301 0
-144 -228 0
-86 -126 0
-65 -126 0
-126 -301 0
-126 -144 0
-65 -86 0
-86 -301 0
-86 -144 0
-65 -301 0
-65 -144 0
-144 -301 0
-220 -227 0
-163 -220 0
-117 -220 0
-206 -220 0
-194 -220 0
-163 -227 0
-117 -227 0
-206 -227 0
-194 -227 0
-117 -163 0
-163 -206 0
-163 -194 0
-117 -206 0
-117 -194 0
-194 -206 0
-146 -167 0
-146 -242 0
-52 -146 0
-124 -146 0
-121 -146 0
-23 -146 0
-146 -209 0
-146 -196 0
-167 -242 0
-52 -167 0
-124 -167 0
-121 -167 0
-23 -167 0
-167 -209 0
-167 -196 0
-52 -242 0
-124 -242 0
-121 -242 0
-23 -242 0
-209 -242 0
-196 -242 0
-52 -124 0
-52 -121 0
-23 -52 0
-52 -209 0
-52 -196 0
-121 -124 0
-23 -124 0
-124 -209 0
-124 -196 0
-23 -121 0
-121 -209 0
-121 -196 0
-23 -209 0
-23 -196 0
-196 -209 0
-81 -235 0
-70 -235 0
-235 -260 0
-137 -235 0
-47 -235 0
-12 -235 0
-11 -235 0
-37 -235 0
-70 -81 0
-81 -260 0
-81 -137 0
-47 -81 0
-12 -81 0
-11 -81 0
-37 -81 0
-70 -260 0
-70 -137 0
-47 -70 0
-12 -70 0
-11 -70 0
-37 -70 0
-137 -260 0
-47 -260 0
-12 -260 0
-11 -260 0
-37 -260 0
-47 -137 0
-12 -137 0
-11 -137 0
-37 -137 0
-12 -47 0
-11 -47 0
-37 -47 0
-11 -12 0
-12 -37 0
-11 -37 0
-119 -244 0
-244 -296 0
-119 -296 0
-125 -299 0
-34 -125 0
-125 -211 0
-34 -299 0
-211 -299 0
-34 -211 0
-183 -234 0
-133 -234 0
-234 -266 0
-143 -234 0
-172 -234 0
-186 -234 0
-205 -234 0
-156 -234 0
-133 -183 0
-183 -266 0
-143 -183 0
-172 -183 0
-183 -186 0
-183 -205 0
-156 -183 0
-133 -266 0
-133 -143 0
-133 -172 0
-133 -186 0
-133 -205 0
-133 -156 0
-143 -266 0
-172 -266 0
-186 -266 0
-205 -266 0
-156 -266 0
-143 -172 0
-143 -186 0
-143 -205 0
-143 -156 0
-172 -186 0
-172 -205 0
-156 -172 0
-186 -205 0
-156 -186 0
-156 -205 0
-178 -201 0
-178 -249 0
-178 -269 0
-151 -178 0
-178 -276 0
-139 -178 0
-178 -208 0
-165 -178 0
-201 -249 0
-201 -269 0
-151 -201 0
-201 -276 0
-139 -201 0
-201 -208 0
-165 -201 0
-249 -269 0
-151 -249 0
-249 -276 0
-139 -249 0
-208 -249 0
-165 -249 0
-151 -269 0
-269 -276 0
-139 -269 0
-208 -269 0
-165 -269 0
-151 -276 0
-139 -151 0
-151 -208 0
-151 -165 0
-139 -276 0
-208 -276 0
-165 -276 0
-139 -208 0
-139 -165 0
-165 -208 0
-15 -80 0
-14 -15 0
-15 -148 0
-15 -203 0
-15 -128 0
-14 -80 0
-80 -148 0
-80 -203 0
-80 -128 0
-14 -148 0
-14 -203 0
-14 -128 0
-148 -203 0
-128 -148 0
-128 -203 0
-78 -114 0
-114 -271 0
-114 -153 0
-114 -189 0
-114 -158 0
-78 -271 0
-78 -153 0
-78 -189 0
-78 -158 0
-153 -271 0
-189 -271 0
-158 -271 0
-153 -189 0
-153 -158 0
-158 -189 0
-184 -305 0
-308 -309 0
-122 -308 0
-122 -309 0
-111 -132 0
-111 -279 0
-111 -171 0
-111 -180 0
-104 -111 0
-132 -279 0
-132 -171 0
-132 -180 0
-104 -132 0
-171 -279 0
-180 -279 0
-104 -279 0
-171 -180 0
-104 -171 0
-104 -180 0
-177 -199 0
-177 -282 0
-177 -289 0
-161 -177 0
-22 -177 0
-199 -282 0
-199 -289 0
-161 -199 0
-22 -199 0
-282 -289 0
-161 -282 0
-22 -282 0
-161 -289 0
-22 -289 0
-22 -161 0
-60 -192 0
-13 -192 0
-42 -192 0
-10 -192 0
-100 -192 0
-13 -60 0
-42 -60 0
-10 -60 0
-60 -100 0
-13 -42 0
-10 -13 0
-13 -100 0
-10 -42 0
-42 -100 0
-10 -100 0
-113 -252 0
-58 -113 0
-113 -284 0
-113 -291 0
-113 -174 0
-113 -138 0
-6 -113 0
-106 -113 0
-58 -252 0
-252 -284 0
-252 -291 0
-174 -252 0
-138 -252 0
-6 -252 0
-106 -252 0
-58 -284 0
-58 -291 0
-58 -174 0
-58 -138 0
-6 -58 0
-58 -106 0
-284 -291 0
-174 -284 0
-138 -284 0
-6 -284 0
-106 -284 0
-174 -291 0
-138 -291 0
-6 -291 0
-106 -291 0
-138 -174 0
-6 -174 0
-106 -174 0
-6 -138 0
-106 -138 0
-6 -106 0
-96 -101 0
-92 -101 0
-101 -166 0
-101 -130 0
-53 -101 0
-101 -302 0
-101 -169 0
-101 -281 0
-92 -96 0
-96 -166 0
-96 -130 0
-53 -96 0
-96 -302 0
-96 -169 0
-96 -281 0
-92 -166 0
-92 -130 0
-53 -92 0
-92 -302 0
-92 -169 0
-92 -281 0
-130 -166 0
-53 -166 0
-166 -302 0
-166 -169 0
-166 -281 0
-53 -130 0
-130 -302 0
-130 -169 0
-130 -281 0
-53 -302 0
-53 -169 0
-53 -281 0
-169 -302 0
-281 -302 0
-169 -281 0
-51 -200 0
-90 -159 0
-59 -159 0
-157 -159 0
-41 -159 0
-159 -312 0
-59 -90 0
-90 -157 0
-41 -90 0
-90 -312 0
-59 -157 0
-41 -59 0
-59 -312 0
-41 -157 0
-157 -312 0
-41 -312 0
-95 -98 0
-63 -98 0
-57 -98 0
-63 -95 0
-57 -95 0
-57 -63 0
-89 -94 0
-54 -94 0
-49 -94 0
-40 -94 0
-27 -94 0
-54 -89 0
-49 -89 0
-40 -89 0
-27 -89 0
-49 -54 0
-40 -54 0
-27 -54 0
-40 -49 0
-27 -49 0
-27 -40 0
-140 -160 0
-88 -140 0
-19 -140 0
-39 -140 0
-18 -140 0
-88 -160 0
-19 -160 0
-39 -160 0
-18 -160 0
-19 -88 0
-39 -88 0
-18 -88 0
-19 -39 0
-18 -19 0
-18 -39 0
-9 -38 0
-8 -9 0
-8 -38 0
-226 -232 0
-116 -226 0
-226 -259 0
-193 -226 0
-185 -226 0
-116 -232 0
-232 -259 0
-193 -232 0
-185 -232 0
-116 -259 0
-116 -193 0
-116 -185 0
-193 -259 0
-185 -259 0
-185 -193 0
-237 -310 0
-45 -310 0
-262 -310 0
-36 -310 0
-204 -310 0
-45 -237 0
-237 -262 0
-36 -237 0
-204 -237 0
-45 -262 0
-36 -45 0
-45 -204 0
-36 -262 0
-204 -262 0
-36 -204 0
-32 -87 0
-31 -87 0
-48 -87 0
-44 -87 0
-30 -87 0
-26 -87 0
-35 -87 0
-61 -87 0
-31 -32 0
-32 -48 0
-32 -44 0
-30 -32 0
-26 -32 0
-32 -35 0
-32 -61 0
-31 -48 0
-31 -44 0
-30 -31 0
-26 -31 0
-31 -35 0
-31 -61 0
-44 -48 0
-30 -48 0
-26 -48 0
-35 -48 0
-48 -61 0
-30 -44 0
-26 -44 0
-35 -44 0
-44 -61 0
-26 -30 0
-30 -35 0
-30 -61 0
-26 -35 0
-26 -61 0
-35 -61 0
-21 -84 0
-20 -84 0
-17 -84 0
-64 -84 0
-33 -84 0
-20 -21 0
-17 -21 0
-21 -64 0
-21 -33 0
-17 -20 0
-20 -64 0
-20 -33 0
-17 -64 0
-17 -33 0
-33 -64 0
-4 -83 0
-83 -135 0
-83 -105 0
-4 -135 0
-4 -105 0
-105 -135 0
-72 -109 0
-72 -152 0
-72 -268 0
-72 -155 0
-72 -181 0
-109 -152 0
-109 -268 0
-109 -155 0
-109 -181 0
-152 -268 0
-152 -155 0
-152 -181 0
-155 -268 0
-181 -268 0
-155 -181 0
-69 -79 0
-68 -79 0
-79 -149 0
-43 -79 0
-79 -311 0
-79 -129 0
-50 -79 0
-79 -313 0
-68 -69 0
-69 -149 0
-43 -69 0
-69 -311 0
-69 -129 0
-50 -69 0
-69 -313 0
-68 -149 0
-43 -68 0
-68 -311 0
-68 -129 0
-50 -68 0
-68 -313 0
-43 -149 0
-149 -311 0
-129 -149 0
-50 -149 0
-149 -313 0
-43 -311 0
-43 -129 0
-43 -50 0
-43 -313 0
-129 -311 0
-50 -311 0
-311 -313 0
-50 -129 0
-129 -313 0
-50 -313 0
-77 -154 0
-67 -75 0
-29 -75 0
-28 -75 0
-55 -75 0
-25 -75 0
-29 -67 0
-28 -67 0
-55 -67 0
-25 -67 0
-28 -29 0
-29 -55 0
-25 -29 0
-28 -55 0
-25 -28 0
-25 -55 0
-74 -175 0
-74 -197 0
-175 -197 0
-73 -188 0
-3 -73 0
-2 -73 0
-3 -188 0
-2 -188 0
-2 -3 0
-103 -303 0
-213 -303 0
-264 -303 0
-303 -304 0
-273 -303 0
-103 -213 0
-103 -264 0
-103 -304 0
-103 -273 0
-213 -264 0
-213 -304 0
-213 -273 0
-264 -304 0
-264 -273 0
-273 -304 0
-141 -306 0
-246 -306 0
-298 -306 0
-265 -306 0
-274 -306 0
-141 -246 0
-141 -298 0
-141 -265 0
-141 -274 0
-246 -298 0
-246 -265 0
-246 -274 0
-265 -298 0
-274 -298 0
-265 -274 0
-99 -214 0
-99 -247 0
-99 -248 0
-99 -316 0
-99 -275 0
-214 -247 0
-214 -248 0
-214 -316 0
-214 -275 0
-247 -248 0
-247 -316 0
-247 -275 0
-248 -316 0
-248 -275 0
-275 -316 0
-107 -318 0
-16 -102 0
-16 -97 0
-16 -233 0
-16 -182 0
-16 -134 0
-16 -267 0
-16 -142 0
-16 -173 0
-97 -102 0
-102 -233 0
-102 -182 0
-102 -134 0
-102 -267 0
-102 -142 0
-102 -173 0
-97 -233 0
-97 -182 0
-97 -134 0
-97 -267 0
-97 -142 0
-97 -173 0
-182 -233 0
-134 -233 0
-233 -267 0
-142 -233 0
-173 -233 0
-134 -182 0
-182 -267 0
-142 -182 0
-173 -182 0
-134 -267 0
-134 -142 0
-134 -173 0
-142 -267 0
-173 -267 0
-142 -173 0
-7 -212 0
-7 -215 0
-7 -179 0
-7 -202 0
-7 -250 0
-7 -270 0
-7 -150 0
-7 -277 0
-212 -215 0
-179 -212 0
-202 -212 0
-212 -250 0
-212 -270 0
-150 -212 0
-212 -277 0
-179 -215 0
-202 -215 0
-215 -250 0
-215 -270 0
-150 -215 0
-215 -277 0
-179 -202 0
-179 -250 0
-179 -270 0
-150 -179 0
-179 -277 0
-202 -250 0
-202 -270 0
-150 -202 0
-202 -277 0
-250 -270 0
-150 -250 0
-250 -277 0
-150 -270 0
-270 -277 0
-150 -277 0
-1 -115 0
-1 -272 0
-115 -272 0
-85 -254 0
-85 -145 0
-145 -254 0
-217 -224 0
-217 -251 0
-217 -255 0
-217 -286 0
-217 -317 0
-224 -251 0
-224 -255 0
-224 -286 0
-224 -317 0
-251 -255 0
-251 -286 0
-251 -317 0
-255 -286 0
-255 -317 0
-286 -317 0
-278 -287 0
-24 -278 0
-24 -287 0
-93 -218 0
-93 -225 0
-93 -110 0
-93 -164 0
-93 -131 0
-93 -280 0
-93 -288 0
-93 -170 0
-218 -225 0
-110 -218 0
-164 -218 0
-131 -218 0
-218 -280 0
-218 -288 0
-170 -218 0
-110 -225 0
-164 -225 0
-131 -225 0
-225 -280 0
-225 -288 0
-170 -225 0
-110 -164 0
-110 -131 0
-110 -280 0
-110 -288 0
-110 -170 0
-131 -164 0
-164 -280 0
-164 -288 0
-164 -170 0
-131 -280 0
-131 -288 0
-131 -170 0
-280 -288 0
-170 -280 0
-170 -288 0
-147 -221 0
-147 -176 0
-147 -198 0
-147 -283 0
-147 -290 0
-176 -221 0
-198 -221 0
-221 -283 0
-221 -290 0
-176 -198 0
-176 -283 0
-176 -290 0
-198 -283 0
-198 -290 0
-283 -290 0
-91 -222 0
-5 -91 0
-91 -191 0
-5 -222 0
-191 -222 0
-5 -191 0
-216 -223 0
-112 -216 0
-216 -253 0
-216 -285 0
-216 -292 0
-112 -223 0
-223 -253 0
-223 -285 0
-223 -292 0
-112 -253 0
-112 -285 0
-112 -292 0
-253 -285 0
-253 -292 0
-285 -292 0
-76 -239 0
-62 -239 0
-56 -239 0
-62 -76 0
-56 -76 0
-56 -62 0
-127 -229 0
-229 -256 0
-229 -307 0
-66 -229 0
-229 -300 0
-127 -256 0
-127 -307 0
-66 -127 0
-127 -300 0
-256 -307 0
-66 -256 0
-256 -300 0
-66 -307 0
-300 -307 0
-66 -300 0
-230 -240 0
-230 -241 0
-230 -257 0
-230 -314 0
-230 -315 0
-230 -293 0
-230 -294 0
-230 -295 0
-240 -241 0
-240 -257 0
-240 -314 0
-240 -315 0
-240 -293 0
-240 -294 0
-240 -295 0
-241 -257 0
-241 -314 0
-241 -315 0
-241 -293 0
-241 -294 0
-241 -295 0
-257 -314 0
-257 -315 0
-257 -293 0
-257 -294 0
-257 -295 0
-314 -315 0
-293 -314 0
-294 -314 0
-295 -314 0
-293 -315 0
-294 -315 0
-295 -315 0
-293 -294 0
-293 -295 0
-294 -295 0
-219 -231 0
-231 -258 0
-162 -231 0
-187 -231 0
-207 -231 0
-219 -258 0
-162 -219 0
-187 -219 0
-207 -219 0
-162 -258 0
-187 -258 0
-207 -258 0
-162 -187 0
-162 -207 0
-187 -207 0
-168 -243 0
-123 -168 0
-120 -168 0
-168 -210 0
-168 -195 0
-123 -243 0
-120 -243 0
-210 -243 0
-195 -243 0
-120 -123 0
-123 -210 0
-123 -195 0
-120 -210 0
-120 -195 0
-195 -210 0
-82 -236 0
-71 -236 0
-236 -261 0
-136 -236 0
-46 -236 0
-71 -82 0
-82 -261 0
-82 -136 0
-46 -82 0
-71 -261 0
-71 -136 0
-46 -71 0
-136 -261 0
-46 -261 0
-46 -136 0
-238 -245 0
-238 -263 0
-118 -238 0
-190 -238 0
-238 -297 0
-245 -263 0
-118 -245 0
-190 -245 0
-245 -297 0
-118 -263 0
-190 -263 0
-263 -297 0
-118 -190 0
-118 -297 0
-190 -297 0
